p cnf 141 418
5 -3 0
2 -4 0
-5 7 0
-6 4 0
-7 9 0
-8 6 0
11 -9 0
8 -10 0
2 -1 0
1 4 0
11 -1 0
1 9 0
-4 -3 -1 0
3 4 -1 0
1 -6 -3 0
1 3 6 0
-6 -5 -1 0
5 -1 6 0
-8 1 -5 0
8 1 5 0
-8 -7 -1 0
8 -1 7 0
1 -7 -10 0
1 10 7 0
-10 -1 -9 0
9 10 -1 0
-13 15 0
-14 12 0
-15 17 0
-16 14 0
19 -17 0
16 -18 0
21 -19 0
18 -20 0
-1 14 0
1 12 0
19 -1 0
1 21 0
-16 -13 -1 0
16 13 -1 0
1 -14 -13 0
1 13 14 0
-15 -1 -18 0
18 -1 15 0
-16 1 -15 0
16 1 15 0
-20 -1 -17 0
17 20 -1 0
1 -18 -17 0
1 18 17 0
1 -20 -19 0
1 19 20 0
-24 26 0
23 -25 0
28 -26 0
25 -27 0
-28 30 0
27 -29 0
32 -30 0
-31 29 0
-22 23 0
27 22 0
32 -22 0
28 22 0
-24 -22 -25 0
24 25 -22 0
-24 -29 22 0
24 29 22 0
-22 -27 -26 0
27 -22 26 0
-31 22 -26 0
26 22 31 0
-22 -29 -28 0
-22 28 29 0
-31 -22 -30 0
-22 30 31 0
36 -34 0
33 -35 0
-36 38 0
35 -37 0
40 -38 0
-39 37 0
-40 42 0
39 -41 0
-22 37 0
33 22 0
-22 38 0
42 22 0
-39 -22 -34 0
-22 34 39 0
-35 -34 22 0
34 35 22 0
-22 -36 -41 0
41 -22 36 0
-37 -36 22 0
36 37 22 0
-39 -38 22 0
38 22 39 0
-40 22 -41 0
40 41 22 0
-45 47 0
-46 44 0
-47 49 0
-48 46 0
51 -49 0
48 -50 0
53 -51 0
50 -52 0
44 -43 0
50 43 0
53 -43 0
43 47 0
-46 -45 -43 0
45 -43 46 0
43 -52 -45 0
43 52 45 0
-48 -47 -43 0
48 -43 47 0
-43 -50 -49 0
49 50 -43 0
-51 -52 -43 0
51 52 -43 0
-55 57 0
-56 54 0
59 -57 0
56 -58 0
61 -59 0
58 -60 0
-61 63 0
-62 60 0
60 -43 0
43 54 0
57 -43 0
43 63 0
-55 -62 -43 0
-43 62 55 0
-56 -55 43 0
56 43 55 0
43 -58 -57 0
57 58 43 0
43 -60 -59 0
59 43 60 0
-62 43 -61 0
43 61 62 0
68 -66 0
65 -67 0
-68 70 0
67 -69 0
72 -70 0
-71 69 0
-72 74 0
71 -73 0
-64 65 0
64 73 0
-64 74 0
64 66 0
-64 -67 -66 0
-64 66 67 0
-64 -69 -68 0
-64 68 69 0
-64 -71 -70 0
-64 70 71 0
-64 -72 -73 0
-64 73 72 0
-76 78 0
75 -77 0
80 -78 0
-79 77 0
-80 82 0
79 -81 0
84 -82 0
81 -83 0
-64 83 0
64 75 0
-64 76 0
64 84 0
64 -77 -76 0
64 76 77 0
64 -79 -78 0
64 78 79 0
64 -80 -81 0
64 81 80 0
64 -83 -82 0
64 82 83 0
89 -87 0
-88 86 0
91 -89 0
88 -90 0
93 -91 0
90 -92 0
-93 95 0
-94 92 0
-85 86 0
85 94 0
-85 95 0
85 87 0
-88 -87 -85 0
88 -85 87 0
-85 -90 -89 0
89 90 -85 0
-85 -92 -91 0
91 -85 92 0
-94 -85 -93 0
-85 93 94 0
99 -97 0
96 -98 0
101 -99 0
98 -100 0
-101 103 0
-102 100 0
-103 105 0
-104 102 0
104 -85 0
96 85 0
97 -85 0
105 85 0
85 -98 -97 0
97 98 85 0
-100 85 -99 0
99 100 85 0
-102 -101 85 0
101 85 102 0
-104 -103 85 0
104 85 103 0
-108 110 0
107 -109 0
112 -110 0
-111 109 0
-112 114 0
111 -113 0
116 -114 0
113 -115 0
109 -106 0
106 111 0
114 -106 0
112 106 0
-111 -108 -106 0
108 -106 111 0
106 -108 -113 0
113 106 108 0
-110 -106 -113 0
113 110 -106 0
106 -115 -110 0
106 115 110 0
-112 -115 -106 0
112 115 -106 0
120 -118 0
-119 117 0
-120 122 0
119 -121 0
124 -122 0
121 -123 0
-124 126 0
123 -125 0
121 -106 0
106 119 0
122 -106 0
106 124 0
-118 -123 -106 0
118 123 -106 0
-121 106 -118 0
121 106 118 0
-120 -125 -106 0
120 125 -106 0
-120 106 -123 0
120 106 123 0
106 -125 -122 0
106 125 122 0
-24 -23 -3 -2 127 0
-26 -25 -5 -4 127 0
-28 -27 -7 -6 127 0
-30 -29 -9 -8 127 0
-32 -31 -11 -10 127 0
-127 -13 -12 -34 -33 0
-127 -15 -14 -36 -35 0
-127 -17 -16 -38 -37 0
-127 -19 -18 -40 -39 0
-127 -21 -20 -42 -41 0
128 -45 -44 -3 -2 0
128 -47 -46 -5 -4 0
128 -49 -48 -7 -6 0
128 -51 -50 -9 -8 0
128 -53 -52 -11 -10 0
-128 -55 -54 -13 -12 0
-128 -57 -56 -15 -14 0
-128 -59 -58 -17 -16 0
-128 -61 -60 -19 -18 0
-128 -63 -62 -21 -20 0
129 -2 -3 -66 -65 0
129 -4 -5 -68 -67 0
129 -6 -7 -70 -69 0
129 -72 -9 -8 -71 0
129 -73 -11 -74 -10 0
-13 -76 -12 -75 -129 0
-15 -78 -14 -77 -129 0
-17 -16 -79 -80 -129 0
-19 -82 -18 -81 -129 0
-21 -84 -20 -83 -129 0
130 -87 -86 -3 -2 0
130 -89 -88 -5 -4 0
130 -91 -90 -7 -6 0
130 -93 -92 -9 -8 0
-95 -94 130 -11 -10 0
-96 -13 -12 -130 -97 0
-15 -14 -98 -99 -130 0
-17 -16 -101 -100 -130 0
-19 -18 -103 -102 -130 0
-21 -20 -105 -104 -130 0
131 -108 -107 -3 -2 0
131 -110 -109 -5 -4 0
131 -112 -111 -7 -6 0
131 -114 -113 -9 -8 0
131 -116 -115 -11 -10 0
-118 -117 -13 -12 -131 0
-120 -119 -15 -14 -131 0
-122 -121 -17 -16 -131 0
-124 -123 -19 -18 -131 0
-126 -125 -21 -20 -131 0
132 -24 -23 -45 -44 0
132 -26 -25 -47 -46 0
132 -28 -27 -49 -48 0
-30 -29 132 -51 -50 0
-32 -31 132 -53 -52 0
-55 -54 -132 -34 -33 0
-57 -56 -36 -132 -35 0
-59 -58 -38 -37 -132 0
-61 -60 -40 -39 -132 0
-63 -62 -42 -41 -132 0
133 -24 -23 -66 -65 0
133 -26 -25 -68 -67 0
-28 -27 133 -70 -69 0
-30 -29 133 -72 -71 0
-32 -31 133 -74 -73 0
-76 -75 -133 -34 -33 0
-78 -77 -133 -36 -35 0
-133 -80 -79 -38 -37 0
-82 -81 -40 -39 -133 0
-84 -83 -42 -41 -133 0
134 -24 -23 -86 -87 0
134 -89 -88 -26 -25 0
-28 -27 134 -90 -91 0
-30 -29 -92 -93 134 0
-32 -31 -94 -95 134 0
-96 -33 -134 -34 -97 0
-99 -134 -36 -35 -98 0
-101 -38 -37 -100 -134 0
-40 -39 -103 -134 -102 0
-41 -42 -105 -104 -134 0
135 -24 -23 -108 -107 0
-26 135 -25 -110 -109 0
-28 -27 135 -112 -111 0
-30 -29 135 -114 -113 0
-32 -31 135 -116 -115 0
-118 -117 -135 -34 -33 0
-120 -119 -135 -36 -35 0
-122 -121 -135 -38 -37 0
-124 -123 -40 -39 -135 0
-126 -125 -42 -41 -135 0
136 -45 -44 -66 -65 0
136 -47 -46 -68 -67 0
136 -49 -48 -70 -69 0
136 -51 -50 -72 -71 0
136 -53 -52 -74 -73 0
-55 -54 -76 -75 -136 0
-57 -56 -78 -77 -136 0
-59 -58 -80 -79 -136 0
-61 -60 -82 -81 -136 0
-63 -62 -84 -83 -136 0
137 -87 -86 -45 -44 0
-89 -88 137 -47 -46 0
-91 -90 137 -49 -48 0
-93 -92 137 -51 -50 0
-95 -94 137 -53 -52 0
-96 -55 -54 -137 -97 0
-57 -56 -137 -99 -98 0
-59 -58 -137 -101 -100 0
-61 -60 -137 -103 -102 0
-63 -62 -105 -137 -104 0
138 -45 -108 -44 -107 0
138 -47 -46 -109 -110 0
138 -49 -48 -111 -112 0
138 -51 -114 -50 -113 0
138 -53 -116 -52 -115 0
-55 -54 -117 -118 -138 0
-57 -56 -119 -120 -138 0
-59 -122 -58 -121 -138 0
-61 -124 -60 -123 -138 0
-63 -62 -125 -126 -138 0
-87 -86 139 -66 -65 0
-89 -88 139 -68 -67 0
-91 -90 139 -70 -69 0
-93 -92 139 -72 -71 0
-95 -94 139 -74 -73 0
-96 -76 -139 -75 -97 0
-78 -77 -139 -99 -98 0
-80 -79 -139 -101 -100 0
-82 -81 -139 -103 -102 0
-84 -83 -139 -105 -104 0
140 -108 -107 -66 -65 0
140 -110 -109 -68 -67 0
140 -112 -111 -70 -69 0
140 -114 -113 -72 -71 0
140 -116 -115 -74 -73 0
-118 -117 -140 -76 -75 0
-120 -119 -78 -77 -140 0
-122 -121 -80 -79 -140 0
-124 -123 -82 -81 -140 0
-126 -125 -84 -83 -140 0
-87 -86 141 -108 -107 0
-89 -88 141 -110 -109 0
-91 -90 141 -112 -111 0
-93 -92 141 -114 -113 0
-95 -94 -116 -115 141 0
-96 -118 -117 -141 -97 0
-120 -119 -141 -99 -98 0
-122 -121 -141 -101 -100 0
-124 -123 -141 -103 -102 0
-126 -125 -141 -105 -104 0
